14° run output:
{
    "Function": "kroB500.tsp",
    "Problem dimension": [
        293,
        58,
        276,
        181,
        215,
        404,
        272,
        414,
        327,
        150,
        265,
        248,
        284,
        498,
        495,
        89,
        164,
        102,
        122,
        305,
        77,
        425,
        133,
        112,
        257,
        458,
        451,
        395,
        177,
        136,
        291,
        36,
        258,
        384,
        238,
        296,
        317,
        388,
        432,
        475,
        478,
        307,
        438,
        344,
        306,
        482,
        318,
        309,
        193,
        312,
        217,
        497,
        420,
        216,
        326,
        156,
        352,
        282,
        281,
        429,
        69,
        329,
        106,
        389,
        348,
        314,
        362,
        447,
        179,
        90,
        46,
        55,
        445,
        45,
        70,
        434,
        359,
        174,
        488,
        60,
        26,
        0,
        358,
        149,
        67,
        376,
        355,
        190,
        468,
        44,
        65,
        71,
        83,
        12,
        16,
        267,
        146,
        444,
        356,
        260,
        242,
        405,
        185,
        93,
        421,
        416,
        330,
        105,
        393,
        493,
        104,
        87,
        320,
        231,
        245,
        49,
        30,
        207,
        476,
        211,
        103,
        56,
        440,
        466,
        487,
        78,
        35,
        17,
        182,
        367,
        34,
        486,
        423,
        189,
        374,
        244,
        142,
        439,
        378,
        402,
        85,
        278,
        481,
        289,
        111,
        364,
        114,
        253,
        170,
        192,
        311,
        20,
        116,
        283,
        292,
        490,
        23,
        110,
        38,
        452,
        435,
        4,
        101,
        363,
        121,
        303,
        368,
        72,
        407,
        214,
        144,
        424,
        428,
        300,
        298,
        151,
        63,
        147,
        375,
        270,
        418,
        115,
        341,
        183,
        209,
        176,
        208,
        157,
        251,
        113,
        167,
        198,
        8,
        57,
        73,
        132,
        235,
        86,
        467,
        377,
        433,
        321,
        204,
        331,
        324,
        165,
        75,
        169,
        188,
        354,
        336,
        223,
        399,
        143,
        127,
        18,
        461,
        285,
        109,
        343,
        88,
        288,
        322,
        7,
        346,
        10,
        250,
        22,
        450,
        14,
        220,
        295,
        411,
        474,
        398,
        6,
        328,
        390,
        168,
        5,
        32,
        212,
        339,
        48,
        323,
        408,
        290,
        386,
        171,
        117,
        430,
        366,
        456,
        479,
        397,
        387,
        94,
        325,
        239,
        53,
        334,
        107,
        345,
        200,
        448,
        263,
        315,
        91,
        119,
        441,
        139,
        41,
        465,
        484,
        455,
        134,
        203,
        254,
        302,
        205,
        47,
        180,
        29,
        453,
        234,
        304,
        155,
        100,
        266,
        228,
        219,
        494,
        353,
        286,
        15,
        13,
        202,
        194,
        401,
        332,
        28,
        166,
        96,
        92,
        391,
        294,
        403,
        485,
        409,
        256,
        197,
        385,
        191,
        125,
        97,
        153,
        175,
        82,
        240,
        252,
        463,
        471,
        79,
        499,
        255,
        496,
        19,
        241,
        225,
        280,
        227,
        99,
        118,
        396,
        443,
        43,
        273,
        161,
        126,
        264,
        222,
        124,
        287,
        37,
        218,
        480,
        371,
        446,
        163,
        154,
        379,
        415,
        406,
        383,
        42,
        460,
        123,
        187,
        130,
        477,
        442,
        196,
        271,
        413,
        54,
        333,
        186,
        108,
        335,
        246,
        436,
        262,
        59,
        277,
        74,
        313,
        310,
        491,
        206,
        360,
        201,
        31,
        80,
        412,
        392,
        483,
        243,
        2,
        454,
        129,
        237,
        469,
        98,
        357,
        259,
        489,
        437,
        349,
        76,
        1,
        184,
        247,
        459,
        162,
        232,
        51,
        351,
        268,
        11,
        473,
        131,
        152,
        370,
        380,
        195,
        427,
        66,
        137,
        40,
        492,
        62,
        25,
        9,
        84,
        382,
        381,
        224,
        410,
        449,
        135,
        172,
        373,
        470,
        316,
        52,
        173,
        27,
        361,
        340,
        347,
        160,
        229,
        24,
        472,
        249,
        221,
        158,
        417,
        308,
        342,
        141,
        299,
        261,
        21,
        457,
        230,
        81,
        365,
        274,
        338,
        226,
        199,
        372,
        145,
        301,
        464,
        426,
        148,
        61,
        462,
        275,
        213,
        33,
        39,
        431,
        422,
        159,
        350,
        400,
        394,
        138,
        269,
        419,
        319,
        95,
        297,
        120,
        236,
        50,
        3,
        233,
        64,
        369,
        337,
        68,
        140,
        279,
        210,
        178,
        128
    ],
    "Global Optimum": 0,
    "Algorithm": "Genetic algorithm",
    "Parameters": {
        "population": 30,
        "offspring": 30,
        "mutation probability": 0.002,
        "crossover probability": 0.9
    },
    "Fitness": 577129,
    "Solution": [
        293,
        58,
        276,
        181,
        215,
        404,
        272,
        414,
        327,
        150,
        265,
        248,
        284,
        498,
        495,
        89,
        164,
        102,
        122,
        305,
        77,
        425,
        133,
        112,
        257,
        458,
        451,
        395,
        177,
        136,
        291,
        36,
        258,
        384,
        238,
        296,
        317,
        388,
        432,
        475,
        478,
        307,
        438,
        344,
        306,
        482,
        318,
        309,
        193,
        312,
        217,
        497,
        420,
        216,
        326,
        156,
        352,
        282,
        281,
        429,
        69,
        329,
        106,
        389,
        348,
        314,
        362,
        447,
        179,
        90,
        46,
        55,
        445,
        45,
        70,
        434,
        359,
        174,
        488,
        60,
        26,
        0,
        358,
        149,
        67,
        376,
        355,
        190,
        468,
        44,
        65,
        71,
        83,
        12,
        16,
        267,
        146,
        444,
        356,
        260,
        242,
        405,
        185,
        93,
        421,
        416,
        330,
        105,
        393,
        493,
        104,
        87,
        320,
        231,
        245,
        49,
        30,
        207,
        476,
        211,
        103,
        56,
        440,
        466,
        487,
        78,
        35,
        17,
        182,
        367,
        34,
        486,
        423,
        189,
        374,
        244,
        142,
        439,
        378,
        402,
        85,
        278,
        481,
        289,
        111,
        364,
        114,
        253,
        170,
        192,
        311,
        20,
        116,
        283,
        292,
        490,
        23,
        110,
        38,
        452,
        435,
        4,
        101,
        363,
        121,
        303,
        368,
        72,
        407,
        214,
        144,
        424,
        428,
        300,
        298,
        151,
        63,
        147,
        375,
        270,
        418,
        115,
        341,
        183,
        209,
        176,
        208,
        157,
        251,
        113,
        167,
        198,
        8,
        57,
        73,
        132,
        235,
        86,
        467,
        377,
        433,
        321,
        204,
        331,
        324,
        165,
        75,
        169,
        188,
        354,
        336,
        223,
        399,
        143,
        127,
        18,
        461,
        285,
        109,
        343,
        88,
        288,
        322,
        7,
        346,
        10,
        250,
        22,
        450,
        14,
        220,
        295,
        411,
        474,
        398,
        6,
        328,
        390,
        168,
        5,
        32,
        212,
        339,
        48,
        323,
        408,
        290,
        386,
        171,
        117,
        430,
        366,
        456,
        479,
        397,
        387,
        94,
        325,
        239,
        53,
        334,
        107,
        345,
        200,
        448,
        263,
        315,
        91,
        119,
        441,
        139,
        41,
        465,
        484,
        455,
        134,
        203,
        254,
        302,
        205,
        47,
        180,
        29,
        453,
        234,
        304,
        155,
        100,
        266,
        228,
        219,
        494,
        353,
        286,
        15,
        13,
        202,
        194,
        401,
        332,
        28,
        166,
        96,
        92,
        391,
        294,
        403,
        485,
        409,
        256,
        197,
        385,
        191,
        125,
        97,
        153,
        175,
        82,
        240,
        252,
        463,
        471,
        79,
        499,
        255,
        496,
        19,
        241,
        225,
        280,
        227,
        99,
        118,
        396,
        443,
        43,
        273,
        161,
        126,
        264,
        222,
        124,
        287,
        37,
        218,
        480,
        371,
        446,
        163,
        154,
        379,
        415,
        406,
        383,
        42,
        460,
        123,
        187,
        130,
        477,
        442,
        196,
        271,
        413,
        54,
        333,
        186,
        108,
        335,
        246,
        436,
        262,
        59,
        277,
        74,
        313,
        310,
        491,
        206,
        360,
        201,
        31,
        80,
        412,
        392,
        483,
        243,
        2,
        454,
        129,
        237,
        469,
        98,
        357,
        259,
        489,
        437,
        349,
        76,
        1,
        184,
        247,
        459,
        162,
        232,
        51,
        351,
        268,
        11,
        473,
        131,
        152,
        370,
        380,
        195,
        427,
        66,
        137,
        40,
        492,
        62,
        25,
        9,
        84,
        382,
        381,
        224,
        410,
        449,
        135,
        172,
        373,
        470,
        316,
        52,
        173,
        27,
        361,
        340,
        347,
        160,
        229,
        24,
        472,
        249,
        221,
        158,
        417,
        308,
        342,
        141,
        299,
        261,
        21,
        457,
        230,
        81,
        365,
        274,
        338,
        226,
        199,
        372,
        145,
        301,
        464,
        426,
        148,
        61,
        462,
        275,
        213,
        33,
        39,
        431,
        422,
        159,
        350,
        400,
        394,
        138,
        269,
        419,
        319,
        95,
        297,
        120,
        236,
        50,
        3,
        233,
        64,
        369,
        337,
        68,
        140,
        279,
        210,
        178,
        128
    ],
    "Nb of functions evaluations": 200010,
    "Computational time in seconds": 851.9143452644348,
    "Stopping criterion in evaluations": 200000
}